Route 1: 26 28 27 18 6 5 37 13 2
Route 2: 50 12 21 40 1 31 7 48
Route 3: 33 20 30 9 35 34 3
Route 4: 42 14 44 38 16 17
Route 5: 45 46 47 8 10 32 19
Route 6: 43 15 41 4 25
Route 7: 39 23 22 24 29
Route 8: 36 11 49
Vehicles: 8
Distance: 981.82
